c turning on binary mode checking
c parsing input formula with 259840 variables and 1039924 clauses
c finished parsing, read 23610021 bytes from proof file
c detected empty clause; start verification via backward checking
c 9281 of 1039924 clauses in core                            
c 9480 of 608618 lemmas in core using 122100 resolution steps
c 0 RAT lemmas in core; 911 redundant literals in core lemmas
s VERIFIED
c verification time: 2.875 seconds
